2025-10-21 23:34:56,655 - INFO - 📌 第一个 epoch：默认所有模块使用 checkpoint
2025-10-21 23:35:22,700 - INFO - Epoch 1 completed in 26.117533 seconds
2025-10-21 23:40:42,479 - INFO - torch.cuda.max_memory_reserved() : 0.919921875
2025-10-21 23:41:07,939 - INFO - 
[🔁 拟合反向传播时间模型]
2025-10-21 23:41:07,940 - INFO - 总反向传播时间: 25.086255s
2025-10-21 23:41:07,940 - INFO - 拟合模型: backward_total ≈ 2 × (A + B) + b
2025-10-21 23:41:07,940 - INFO - A = 13.881771, B = 1.229897, b = 9.974586s
2025-10-21 23:41:07,987 - INFO - Set parameter LicenseID to value 2706656
2025-10-21 23:41:07,992 - INFO - Set parameter LogToConsole to value 1
2025-10-21 23:41:07,992 - INFO - Set parameter LogFile to value ""
2025-10-21 23:41:07,992 - INFO - Set parameter Threads to value 12
2025-10-21 23:41:07,992 - INFO - Set parameter TimeLimit to value 3600
2025-10-21 23:41:07,992 - INFO - Set parameter OptimalityTol to value 0.0001
2025-10-21 23:41:07,993 - INFO - Set parameter IntFeasTol to value 1e-05
2025-10-21 23:41:07,993 - INFO - Set parameter StartNodeLimit to value 10000000
2025-10-21 23:41:08,072 - INFO - Set parameter TimeLimit to value 3600
2025-10-21 23:41:08,073 - INFO - 
2025-10-21 23:41:08,073 - INFO - 
2025-10-21 23:41:08,073 - INFO - Restarting solve
2025-10-21 23:41:08,073 - INFO - 
2025-10-21 23:41:08,073 - INFO - 
2025-10-21 23:41:08,075 - INFO - Gurobi Optimizer version 12.0.3 build v12.0.3rc0 (linux64 - "Ubuntu 20.04.6 LTS")
2025-10-21 23:41:08,075 - INFO - 
2025-10-21 23:41:08,075 - INFO - CPU model: Intel(R) Xeon(R) Platinum 8260 CPU @ 2.40GHz, instruction set [SSE2|AVX|AVX2|AVX512]
2025-10-21 23:41:08,075 - INFO - Thread count: 48 physical cores, 96 logical processors, using up to 12 threads
2025-10-21 23:41:08,075 - INFO - 
2025-10-21 23:41:08,075 - INFO - Non-default parameters:
2025-10-21 23:41:08,075 - INFO - TimeLimit  3600
2025-10-21 23:41:08,075 - INFO - OptimalityTol  0.0001
2025-10-21 23:41:08,076 - INFO - StartNodeLimit  10000000
2025-10-21 23:41:08,076 - INFO - Threads  12
2025-10-21 23:41:08,076 - INFO - 
2025-10-21 23:41:08,076 - INFO - Optimize a model with 5603 rows, 3584 columns and 15200 nonzeros
2025-10-21 23:41:08,076 - INFO - Model fingerprint: 0x3a03e5c2
2025-10-21 23:41:08,076 - INFO - Variable types: 1024 continuous, 2560 integer (2560 binary)
2025-10-21 23:41:08,076 - INFO - Coefficient statistics:
2025-10-21 23:41:08,076 - INFO -   Matrix range     [1e+00, 6e+14]
2025-10-21 23:41:08,076 - INFO -   Objective range  [6e+04, 4e+05]
2025-10-21 23:41:08,076 - INFO -   Bounds range     [1e+00, 6e+15]
2025-10-21 23:41:08,077 - INFO -   RHS range        [1e+00, 6e+15]
2025-10-21 23:41:08,077 - INFO - Warning: Model contains large matrix coefficient range
2025-10-21 23:41:08,077 - INFO - Warning: Model contains large rhs
2025-10-21 23:41:08,077 - INFO - Warning: Model contains large bounds
2025-10-21 23:41:08,077 - INFO -          Consider reformulating model or setting NumericFocus parameter
2025-10-21 23:41:08,077 - INFO -          to avoid numerical issues.
2025-10-21 23:41:08,098 - INFO - Presolve removed 4305 rows and 1986 columns
2025-10-21 23:41:08,098 - INFO - Presolve time: 0.02s
2025-10-21 23:41:08,098 - INFO - Presolved: 1298 rows, 1598 columns, 4470 nonzeros
2025-10-21 23:41:08,100 - INFO - Variable types: 0 continuous, 1598 integer (1095 binary)
2025-10-21 23:41:08,108 - INFO - Found heuristic solution: objective 1.008442e+07
2025-10-21 23:41:08,112 - INFO - Found heuristic solution: objective 9697152.0000
2025-10-21 23:41:08,118 - INFO - 
2025-10-21 23:41:08,118 - INFO - Root relaxation: objective 6.464768e+06, 419 iterations, 0.00 seconds (0.00 work units)
2025-10-21 23:41:08,120 - INFO - 
2025-10-21 23:41:08,120 - INFO -     Nodes    |    Current Node    |     Objective Bounds      |     Work
2025-10-21 23:41:08,120 - INFO -  Expl Unexpl |  Obj  Depth IntInf | Incumbent    BestBd   Gap | It/Node Time
2025-10-21 23:41:08,120 - INFO - 
2025-10-21 23:41:08,120 - INFO -      0     0 6464768.00    0    7 9697152.00 6464768.00  33.3%     -    0s
2025-10-21 23:41:08,124 - INFO - H    0     0                    9035116.0000 6464768.00  28.4%     -    0s
2025-10-21 23:41:08,127 - INFO - H    0     0                    6464768.0000 6464768.00  0.00%     -    0s
2025-10-21 23:41:08,127 - INFO -      0     0 6464768.00    0    7 6464768.00 6464768.00  0.00%     -    0s
2025-10-21 23:41:08,137 - INFO - 
2025-10-21 23:41:08,137 - INFO - Explored 1 nodes (419 simplex iterations) in 0.06 seconds (0.03 work units)
2025-10-21 23:41:08,137 - INFO - Thread count was 12 (of 96 available processors)
2025-10-21 23:41:08,137 - INFO - 
2025-10-21 23:41:08,137 - INFO - Solution count 4: 6.46477e+06 9.03512e+06 9.69715e+06 1.00844e+07 
2025-10-21 23:41:08,137 - INFO - 
2025-10-21 23:41:08,137 - INFO - Optimal solution found (tolerance 1.00e-04)
2025-10-21 23:41:08,137 - INFO - Best objective 6.464768000000e+06, best bound 6.464768000000e+06, gap 0.0000%
2025-10-21 23:41:08,155 - INFO - 规划前的显存GB：5.0
2025-10-21 23:41:08,155 - INFO - 规划后的显存GB：2.5380959510803223
2025-10-21 23:41:08,155 - INFO - ✅ 最优策略：[1, 1, 1, 1, 1, 1, 1, 1, 1, 1, 1, 1, 1, 1, 1, 1]
2025-10-21 23:41:08,155 - INFO - 📌 checkpoint 的欧氏长度:, []
2025-10-21 23:41:08,155 - INFO - 📌 checkpoint 的余弦长度:, []
2025-10-21 23:41:08,156 - INFO - 💾 最终显存峰值：%.2f MB % 2444.3057861328125
2025-10-21 23:41:08,177 - INFO - Epoch 2 completed in 25.696900 seconds
2025-10-21 23:41:08,178 - INFO - torch.cuda.max_memory_reserved() : 0.919921875
2025-10-21 23:41:28,098 - INFO - Epoch 3 completed in 19.919248 seconds
2025-10-21 23:41:28,098 - INFO - 
====================== [第1个 Epoch 收集统计数据] ======================
2025-10-21 23:41:28,098 - INFO - 
🔍 EUCLIDEAN modules:
2025-10-21 23:41:28,098 - INFO - [Shapelet   6] forward_avg=0.002750s over 92 calls | peak=121.01MB | final=0.00MB
2025-10-21 23:41:28,099 - INFO - [Shapelet  12] forward_avg=0.002869s over 92 calls | peak=164.59MB | final=0.00MB
2025-10-21 23:41:28,099 - INFO - [Shapelet  18] forward_avg=0.003267s over 92 calls | peak=202.52MB | final=0.00MB
2025-10-21 23:41:28,099 - INFO - [Shapelet  24] forward_avg=0.003311s over 92 calls | peak=233.25MB | final=0.00MB
2025-10-21 23:41:28,099 - INFO - [Shapelet  30] forward_avg=0.003337s over 92 calls | peak=247.82MB | final=0.00MB
2025-10-21 23:41:28,099 - INFO - [Shapelet  36] forward_avg=0.003636s over 92 calls | peak=247.36MB | final=0.00MB
2025-10-21 23:41:28,099 - INFO - [Shapelet  42] forward_avg=0.003815s over 92 calls | peak=232.68MB | final=0.00MB
2025-10-21 23:41:28,099 - INFO - [Shapelet  49] forward_avg=0.002654s over 92 calls | peak=202.64MB | final=0.00MB
2025-10-21 23:41:28,099 - INFO - 
🔍 COSINE modules:
2025-10-21 23:41:28,099 - INFO - [Shapelet   6] forward_avg=0.002937s over 92 calls | peak=81.68MB | final=0.00MB
2025-10-21 23:41:28,099 - INFO - [Shapelet  12] forward_avg=0.002899s over 92 calls | peak=100.70MB | final=0.00MB
2025-10-21 23:41:28,099 - INFO - [Shapelet  18] forward_avg=0.003016s over 92 calls | peak=117.07MB | final=0.00MB
2025-10-21 23:41:28,099 - INFO - [Shapelet  24] forward_avg=0.002868s over 92 calls | peak=134.74MB | final=0.00MB
2025-10-21 23:41:28,099 - INFO - [Shapelet  30] forward_avg=0.003233s over 92 calls | peak=141.93MB | final=0.00MB
2025-10-21 23:41:28,099 - INFO - [Shapelet  36] forward_avg=0.003490s over 92 calls | peak=139.35MB | final=0.00MB
2025-10-21 23:41:28,099 - INFO - [Shapelet  42] forward_avg=0.003365s over 92 calls | peak=125.51MB | final=0.00MB
2025-10-21 23:41:28,099 - INFO - [Shapelet  49] forward_avg=0.002848s over 92 calls | peak=106.17MB | final=0.00MB
2025-10-21 23:41:28,099 - INFO - 
🔍 CROSS modules:
2025-10-21 23:41:28,099 - INFO - [Shapelet   6] forward_avg=0.000757s over 92 calls
2025-10-21 23:41:28,099 - INFO - [Shapelet  12] forward_avg=0.000637s over 92 calls
2025-10-21 23:41:28,099 - INFO - [Shapelet  18] forward_avg=0.000663s over 92 calls
2025-10-21 23:41:28,099 - INFO - [Shapelet  24] forward_avg=0.000769s over 92 calls
2025-10-21 23:41:28,099 - INFO - [Shapelet  30] forward_avg=0.000820s over 92 calls
2025-10-21 23:41:28,099 - INFO - [Shapelet  36] forward_avg=0.000950s over 92 calls
2025-10-21 23:41:28,100 - INFO - [Shapelet  42] forward_avg=0.000988s over 92 calls
2025-10-21 23:41:28,100 - INFO - [Shapelet  49] forward_avg=0.001102s over 92 calls
2025-10-21 23:41:28,100 - INFO - 
💾 模型第一次反向传播阶段的显存峰值（所有模块中的最大值）: 2780.89 MB
2025-10-21 23:41:28,100 - INFO - 
💾 模型初始显存: 18.32 MB
2025-10-21 23:41:28,100 - INFO - =======================================================================

2025-10-21 23:41:28,100 - INFO - torch.cuda.max_memory_reserved() : 3.107421875
2025-10-21 23:41:48,115 - INFO - Epoch 4 completed in 20.014225 seconds
2025-10-21 23:41:48,115 - INFO - torch.cuda.max_memory_reserved() : 3.107421875
2025-10-21 23:42:07,924 - INFO - Epoch 5 completed in 19.807721 seconds
2025-10-21 23:42:07,925 - INFO - torch.cuda.max_memory_reserved() : 3.107421875
2025-10-21 23:42:28,402 - INFO - Epoch 6 completed in 20.476043 seconds
2025-10-21 23:42:28,403 - INFO - torch.cuda.max_memory_reserved() : 3.107421875
2025-10-21 23:42:48,173 - INFO - Epoch 7 completed in 19.768596 seconds
2025-10-21 23:42:48,173 - INFO - torch.cuda.max_memory_reserved() : 3.107421875
2025-10-21 23:43:07,938 - INFO - Epoch 8 completed in 19.763946 seconds
2025-10-21 23:43:07,939 - INFO - torch.cuda.max_memory_reserved() : 3.107421875
2025-10-21 23:43:27,705 - INFO - Epoch 9 completed in 19.764997 seconds
2025-10-21 23:43:27,706 - INFO - torch.cuda.max_memory_reserved() : 3.107421875
2025-10-21 23:43:48,721 - INFO - Epoch 10 completed in 21.013300 seconds
2025-10-21 23:48:44,214 - INFO - torch.cuda.max_memory_reserved() : 3.107421875
2025-10-21 23:48:44,215 - INFO - !!!采用策略后的几个epoch 平均时间:20.066009432077408
2025-10-21 23:48:44,215 - INFO - 



